p tw 225 47251 2 
1 3 
1 4 
1 5 
1 6 
1 7 
1 8 
1 9 
1 10 
1 11 
1 12 
1 13 
1 14 
1 15 
1 16 
1 30 
1 31 
1 33 
1 46 
1 59 
1 61 
1 70 
1 76 
1 86 
1 91 
1 102 
1 106 
1 118 
1 121 
1 128 
1 136 
1 142 
1 151 
1 156 
1 166 
1 170 
1 181 
1 184 
1 196 
1 204 
1 211 
1 212 
2 3 
2 4 
2 5 
2 6 
2 7 
2 8 
2 9 
2 10 
2 11 
2 12 
2 13 
2 14 
2 15 
2 17 
2 25 
2 32 
2 39 
2 47 
2 50 
2 61 
2 62 
2 77 
2 90 
2 92 
2 97 
2 107 
2 113 
2 122 
2 124 
2 137 
2 146 
2 152 
2 164 
2 167 
2 171 
2 182 
2 192 
2 197 
2 208 
2 212 
2 213 
3 4 
3 5 
3 6 
3 7 
3 8 
3 9 
3 10 
3 11 
3 12 
3 13 
3 14 
3 15 
3 17 
3 18 
3 33 
3 43 
3 48 
3 53 
3 63 
3 66 
3 78 
3 84 
3 93 
3 101 
3 108 
3 112 
3 123 
3 125 
3 138 
3 139 
3 153 
3 162 
3 168 
3 175 
3 183 
3 194 
3 196 
3 198 
3 213 
3 225 
4 5 
4 6 
4 7 
4 8 
4 9 
4 10 
4 11 
4 12 
4 13 
4 14 
4 15 
4 18 
4 19 
4 32 
4 34 
4 46 
4 49 
4 64 
4 75 
4 79 
4 89 
4 94 
4 103 
4 109 
4 117 
4 124 
4 131 
4 139 
4 145 
4 154 
4 159 
4 169 
4 173 
4 184 
4 187 
4 199 
4 201 
4 214 
4 215 
5 6 
5 7 
5 8 
5 9 
5 10 
5 11 
5 12 
5 13 
5 14 
5 15 
5 19 
5 20 
5 35 
5 45 
5 48 
5 50 
5 62 
5 65 
5 80 
5 87 
5 95 
5 104 
5 110 
5 116 
5 125 
5 126 
5 140 
5 148 
5 155 
5 160 
5 170 
5 174 
5 185 
5 188 
5 200 
5 202 
5 211 
5 215 
6 7 
6 8 
6 9 
6 10 
6 11 
6 12 
6 13 
6 14 
6 15 
6 20 
6 21 
6 34 
6 36 
6 51 
6 60 
6 66 
6 68 
6 77 
6 81 
6 91 
6 96 
6 111 
6 114 
6 126 
6 130 
6 141 
6 147 
6 156 
6 161 
6 168 
6 171 
6 186 
6 193 
6 201 
6 209 
6 216 
6 217 
7 8 
7 9 
7 10 
7 11 
7 12 
7 13 
7 14 
7 15 
7 22 
7 26 
7 37 
7 42 
7 49 
7 52 
7 63 
7 67 
7 82 
7 88 
7 96 
7 97 
7 112 
7 120 
7 127 
7 134 
7 142 
7 144 
7 155 
7 157 
7 166 
7 172 
7 187 
7 190 
7 197 
7 202 
7 217 
7 218 
8 9 
8 10 
8 11 
8 12 
8 13 
8 14 
8 15 
8 22 
8 23 
8 31 
8 38 
8 53 
8 56 
8 64 
8 68 
8 78 
8 83 
8 92 
8 98 
8 111 
8 113 
8 128 
8 135 
8 143 
8 149 
8 158 
8 163 
8 173 
8 177 
8 185 
8 188 
8 203 
8 205 
8 218 
8 219 
9 10 
9 11 
9 12 
9 13 
9 14 
9 15 
9 24 
9 28 
9 37 
9 39 
9 51 
9 54 
9 65 
9 69 
9 76 
9 84 
9 93 
9 99 
9 114 
9 119 
9 129 
9 132 
9 144 
9 150 
9 154 
9 159 
9 174 
9 176 
9 182 
9 189 
9 203 
9 204 
9 219 
9 220 
10 11 
10 12 
10 13 
10 14 
10 15 
10 24 
10 25 
10 38 
10 40 
10 55 
10 58 
10 67 
10 70 
10 80 
10 85 
10 94 
10 100 
10 108 
10 115 
10 122 
10 130 
10 136 
10 145 
10 160 
10 165 
10 175 
10 179 
10 186 
10 190 
10 205 
10 207 
10 220 
10 221 
11 12 
11 13 
11 14 
11 15 
11 21 
11 26 
11 41 
11 44 
11 52 
11 56 
11 71 
11 73 
11 83 
11 86 
11 95 
11 101 
11 115 
11 116 
11 129 
11 131 
11 137 
11 146 
11 151 
11 161 
11 176 
11 180 
11 183 
11 191 
11 199 
11 206 
11 221 
11 222 
12 13 
12 14 
12 15 
12 27 
12 29 
12 35 
12 42 
12 47 
12 57 
12 71 
12 72 
12 85 
12 87 
12 99 
12 102 
12 106 
12 117 
12 132 
12 133 
12 143 
12 147 
12 157 
12 162 
12 169 
12 177 
12 192 
12 195 
12 198 
12 207 
12 216 
12 222 
13 14 
13 15 
13 27 
13 28 
13 41 
13 43 
13 55 
13 58 
13 69 
13 73 
13 81 
13 88 
13 98 
13 103 
13 109 
13 118 
13 127 
13 133 
13 140 
13 148 
13 153 
13 163 
13 167 
13 178 
13 181 
13 193 
13 208 
13 210 
13 223 
13 224 
14 15 
14 16 
14 29 
14 40 
14 44 
14 54 
14 59 
14 72 
14 74 
14 79 
14 89 
14 104 
14 105 
14 107 
14 119 
14 123 
14 134 
14 141 
14 149 
14 158 
14 164 
14 172 
14 179 
14 191 
14 194 
14 200 
14 209 
14 223 
14 224 
15 23 
15 30 
15 36 
15 45 
15 57 
15 60 
15 74 
15 75 
15 82 
15 90 
15 100 
15 105 
15 110 
15 120 
15 121 
15 135 
15 138 
15 150 
15 152 
15 165 
15 178 
15 180 
15 189 
15 195 
15 206 
15 210 
15 214 
15 225 
16 17 
16 18 
16 19 
16 20 
16 21 
16 22 
16 23 
16 24 
16 25 
16 26 
16 27 
16 28 
16 29 
16 30 
16 31 
16 40 
16 46 
16 54 
16 61 
16 72 
16 76 
16 79 
16 91 
16 105 
16 106 
16 107 
16 121 
16 123 
16 136 
16 141 
16 151 
16 158 
16 166 
16 172 
16 181 
16 191 
16 196 
16 200 
16 211 
16 223 
17 18 
17 19 
17 20 
17 21 
17 22 
17 23 
17 24 
17 25 
17 26 
17 27 
17 28 
17 29 
17 30 
17 32 
17 43 
17 47 
17 53 
17 62 
17 66 
17 77 
17 84 
17 92 
17 101 
17 107 
17 112 
17 122 
17 125 
17 137 
17 139 
17 152 
17 162 
17 167 
17 175 
17 182 
17 194 
17 196 
17 197 
17 212 
17 225 
18 19 
18 20 
18 21 
18 22 
18 23 
18 24 
18 25 
18 26 
18 27 
18 28 
18 29 
18 30 
18 32 
18 33 
18 46 
18 48 
18 63 
18 75 
18 78 
18 89 
18 93 
18 103 
18 108 
18 117 
18 123 
18 131 
18 138 
18 145 
18 153 
18 159 
18 168 
18 173 
18 183 
18 187 
18 198 
18 201 
18 213 
18 215 
19 20 
19 21 
19 22 
19 23 
19 24 
19 25 
19 26 
19 27 
19 28 
19 29 
19 30 
19 34 
19 45 
19 48 
19 49 
19 62 
19 64 
19 79 
19 87 
19 94 
19 104 
19 109 
19 116 
19 124 
19 126 
19 139 
19 148 
19 154 
19 160 
19 169 
19 174 
19 184 
19 188 
19 199 
19 202 
19 211 
19 214 
20 21 
20 22 
20 23 
20 24 
20 25 
20 26 
20 27 
20 28 
20 29 
20 30 
20 34 
20 35 
20 50 
20 60 
20 65 
20 68 
20 77 
20 80 
20 91 
20 95 
20 110 
20 114 
20 125 
20 130 
20 140 
20 147 
20 155 
20 161 
20 168 
20 170 
20 185 
20 193 
20 200 
20 209 
20 215 
20 217 
21 22 
21 23 
21 24 
21 25 
21 26 
21 27 
21 28 
21 29 
21 30 
21 36 
21 44 
21 51 
21 52 
21 66 
21 73 
21 81 
21 83 
21 95 
21 96 
21 111 
21 115 
21 126 
21 129 
21 137 
21 141 
21 151 
21 156 
21 171 
21 180 
21 183 
21 186 
21 199 
21 201 
21 216 
21 222 
22 23 
22 24 
22 25 
22 26 
22 27 
22 28 
22 29 
22 30 
22 31 
22 37 
22 52 
22 56 
22 64 
22 67 
22 78 
22 82 
22 92 
22 97 
22 111 
22 112 
22 127 
22 135 
22 142 
22 149 
22 157 
22 163 
22 172 
22 177 
22 185 
22 187 
22 202 
22 205 
22 217 
22 219 
23 24 
23 25 
23 26 
23 27 
23 28 
23 29 
23 30 
23 36 
23 38 
23 53 
23 57 
23 68 
23 74 
23 82 
23 83 
23 98 
23 100 
23 110 
23 113 
23 121 
23 128 
23 138 
23 143 
23 152 
23 158 
23 173 
23 178 
23 188 
23 189 
23 203 
23 206 
23 214 
23 218 
24 25 
24 26 
24 27 
24 28 
24 29 
24 30 
24 38 
24 39 
24 54 
24 58 
24 67 
24 69 
24 80 
24 84 
24 94 
24 99 
24 108 
24 114 
24 122 
24 129 
24 136 
24 144 
24 159 
24 165 
24 174 
24 179 
24 186 
24 189 
24 204 
24 207 
24 219 
24 221 
25 26 
25 27 
25 28 
25 29 
25 30 
25 39 
25 40 
25 50 
25 55 
25 61 
25 70 
25 85 
25 90 
25 97 
25 100 
25 113 
25 115 
25 124 
25 130 
25 145 
25 146 
25 160 
25 164 
25 171 
25 175 
25 190 
25 192 
25 205 
25 208 
25 213 
25 220 
26 27 
26 28 
26 29 
26 30 
26 41 
26 42 
26 49 
26 56 
26 63 
26 71 
26 86 
26 88 
26 96 
26 101 
26 116 
26 120 
26 131 
26 134 
26 144 
26 146 
26 155 
26 161 
26 166 
26 176 
26 190 
26 191 
26 197 
26 206 
26 218 
26 221 
27 28 
27 29 
27 30 
27 41 
27 42 
27 55 
27 57 
27 69 
27 72 
27 81 
27 87 
27 98 
27 102 
27 109 
27 117 
27 127 
27 132 
27 140 
27 147 
27 153 
27 162 
27 167 
27 177 
27 181 
27 192 
27 207 
27 210 
27 222 
27 224 
28 29 
28 30 
28 37 
28 43 
28 51 
28 58 
28 65 
28 73 
28 76 
28 88 
28 93 
28 103 
28 118 
28 119 
28 132 
28 133 
28 148 
28 150 
28 154 
28 163 
28 176 
28 178 
28 182 
28 193 
28 203 
28 208 
28 220 
28 223 
29 30 
29 35 
29 44 
29 47 
29 59 
29 71 
29 74 
29 85 
29 89 
29 99 
29 104 
29 106 
29 119 
29 133 
29 134 
29 143 
29 149 
29 157 
29 164 
29 169 
29 179 
29 194 
29 195 
29 198 
29 209 
29 216 
29 224 
30 33 
30 45 
30 59 
30 60 
30 70 
30 75 
30 86 
30 90 
30 102 
30 105 
30 118 
30 120 
30 128 
30 135 
30 142 
30 150 
30 156 
30 165 
30 170 
30 180 
30 184 
30 195 
30 204 
30 210 
30 212 
30 225 
31 32 
31 33 
31 34 
31 35 
31 36 
31 37 
31 38 
31 39 
31 40 
31 41 
31 42 
31 43 
31 44 
31 45 
31 46 
31 56 
31 61 
31 64 
31 76 
31 78 
31 91 
31 92 
31 106 
31 111 
31 121 
31 135 
31 136 
31 149 
31 151 
31 163 
31 166 
31 177 
31 181 
31 185 
31 196 
31 205 
31 211 
31 219 
32 33 
32 34 
32 35 
32 36 
32 37 
32 38 
32 39 
32 40 
32 41 
32 42 
32 43 
32 44 
32 45 
32 46 
32 47 
32 62 
32 75 
32 77 
32 89 
32 92 
32 103 
32 107 
32 117 
32 122 
32 131 
32 137 
32 145 
32 152 
32 159 
32 167 
32 173 
32 182 
32 187 
32 197 
32 201 
32 212 
32 215 
33 34 
33 35 
33 36 
33 37 
33 38 
33 39 
33 40 
33 41 
33 42 
33 43 
33 44 
33 45 
33 48 
33 59 
33 63 
33 70 
33 78 
33 86 
33 93 
33 102 
33 108 
33 118 
33 123 
33 128 
33 138 
33 142 
33 153 
33 156 
33 168 
33 170 
33 183 
33 184 
33 198 
33 204 
33 212 
33 213 
34 35 
34 36 
34 37 
34 38 
34 39 
34 40 
34 41 
34 42 
34 43 
34 44 
34 45 
34 49 
34 60 
34 64 
34 68 
34 77 
34 79 
34 91 
34 94 
34 109 
34 114 
34 124 
34 130 
34 139 
34 147 
34 154 
34 161 
34 168 
34 169 
34 184 
34 193 
34 199 
34 209 
34 214 
34 217 
35 36 
35 37 
35 38 
35 39 
35 40 
35 41 
35 42 
35 43 
35 44 
35 45 
35 47 
35 50 
35 65 
35 71 
35 80 
35 85 
35 95 
35 99 
35 106 
35 110 
35 125 
35 133 
35 140 
35 143 
35 155 
35 157 
35 169 
35 170 
35 185 
35 195 
35 198 
35 200 
35 215 
35 216 
36 37 
36 38 
36 39 
36 40 
36 41 
36 42 
36 43 
36 44 
36 45 
36 51 
36 57 
36 66 
36 74 
36 81 
36 82 
36 96 
36 100 
36 110 
36 111 
36 121 
36 126 
36 138 
36 141 
36 152 
36 156 
36 171 
36 178 
36 186 
36 189 
36 201 
36 206 
36 214 
36 216 
37 38 
37 39 
37 40 
37 41 
37 42 
37 43 
37 44 
37 45 
37 51 
37 52 
37 65 
37 67 
37 76 
37 82 
37 93 
37 97 
37 112 
37 119 
37 127 
37 132 
37 142 
37 150 
37 154 
37 157 
37 172 
37 176 
37 182 
37 187 
37 202 
37 203 
37 217 
37 220 
38 39 
38 40 
38 41 
38 42 
38 43 
38 44 
38 45 
38 53 
38 58 
38 67 
38 68 
38 80 
38 83 
38 94 
38 98 
38 108 
38 113 
38 122 
38 128 
38 136 
38 143 
38 158 
38 165 
38 173 
38 179 
38 186 
38 188 
38 203 
38 207 
38 218 
38 221 
39 40 
39 41 
39 42 
39 43 
39 44 
39 45 
39 50 
39 54 
39 61 
39 69 
39 84 
39 90 
39 97 
39 99 
39 113 
39 114 
39 124 
39 129 
39 144 
39 146 
39 159 
39 164 
39 171 
39 174 
39 189 
39 192 
39 204 
39 208 
39 213 
39 219 
40 41 
40 42 
40 43 
40 44 
40 45 
40 54 
40 55 
40 70 
40 72 
40 79 
40 85 
40 100 
40 105 
40 107 
40 115 
40 123 
40 130 
40 141 
40 145 
40 158 
40 160 
40 172 
40 175 
40 190 
40 191 
40 200 
40 205 
40 220 
40 223 
41 42 
41 43 
41 44 
41 45 
41 55 
41 56 
41 69 
41 71 
41 81 
41 86 
41 98 
41 101 
41 109 
41 116 
41 127 
41 131 
41 140 
41 146 
41 153 
41 161 
41 167 
41 176 
41 181 
41 191 
41 206 
41 210 
41 221 
41 224 
42 43 
42 44 
42 45 
42 49 
42 57 
42 63 
42 72 
42 87 
42 88 
42 96 
42 102 
42 117 
42 120 
42 132 
42 134 
42 144 
42 147 
42 155 
42 162 
42 166 
42 177 
42 190 
42 192 
42 197 
42 207 
42 218 
42 222 
43 44 
43 45 
43 53 
43 58 
43 66 
43 73 
43 84 
43 88 
43 101 
43 103 
43 112 
43 118 
43 125 
43 133 
43 139 
43 148 
43 162 
43 163 
43 175 
43 178 
43 193 
43 194 
43 196 
43 208 
43 223 
43 225 
44 45 
44 52 
44 59 
44 73 
44 74 
44 83 
44 89 
44 95 
44 104 
44 115 
44 119 
44 129 
44 134 
44 137 
44 149 
44 151 
44 164 
44 179 
44 180 
44 183 
44 194 
44 199 
44 209 
44 222 
44 224 
45 48 
45 60 
45 62 
45 75 
45 87 
45 90 
45 104 
45 105 
45 116 
45 120 
45 126 
45 135 
45 148 
45 150 
45 160 
45 165 
45 174 
45 180 
45 188 
45 195 
45 202 
45 210 
45 211 
45 225 
46 47 
46 48 
46 49 
46 50 
46 51 
46 52 
46 53 
46 54 
46 55 
46 56 
46 57 
46 58 
46 59 
46 60 
46 61 
46 75 
46 76 
46 89 
46 91 
46 103 
46 106 
46 117 
46 121 
46 131 
46 136 
46 145 
46 151 
46 159 
46 166 
46 173 
46 181 
46 187 
46 196 
46 201 
46 211 
46 215 
47 48 
47 49 
47 50 
47 51 
47 52 
47 53 
47 54 
47 55 
47 56 
47 57 
47 58 
47 59 
47 60 
47 62 
47 71 
47 77 
47 85 
47 92 
47 99 
47 106 
47 107 
47 122 
47 133 
47 137 
47 143 
47 152 
47 157 
47 167 
47 169 
47 182 
47 195 
47 197 
47 198 
47 212 
47 216 
48 49 
48 50 
48 51 
48 52 
48 53 
48 54 
48 55 
48 56 
48 57 
48 58 
48 59 
48 60 
48 62 
48 63 
48 78 
48 87 
48 93 
48 104 
48 108 
48 116 
48 123 
48 126 
48 138 
48 148 
48 153 
48 160 
48 168 
48 174 
48 183 
48 188 
48 198 
48 202 
48 211 
48 213 
49 50 
49 51 
49 52 
49 53 
49 54 
49 55 
49 56 
49 57 
49 58 
49 59 
49 60 
49 63 
49 64 
49 79 
49 88 
49 94 
49 96 
49 109 
49 120 
49 124 
49 134 
49 139 
49 144 
49 154 
49 155 
49 166 
49 169 
49 184 
49 190 
49 197 
49 199 
49 214 
49 218 
50 51 
50 52 
50 53 
50 54 
50 55 
50 56 
50 57 
50 58 
50 59 
50 60 
50 61 
50 65 
50 80 
50 90 
50 95 
50 97 
50 110 
50 113 
50 124 
50 125 
50 140 
50 146 
50 155 
50 164 
50 170 
50 171 
50 185 
50 192 
50 200 
50 208 
50 213 
50 215 
51 52 
51 53 
51 54 
51 55 
51 56 
51 57 
51 58 
51 59 
51 60 
51 65 
51 66 
51 76 
51 81 
51 93 
51 96 
51 111 
51 119 
51 126 
51 132 
51 141 
51 150 
51 154 
51 156 
51 171 
51 176 
51 182 
51 186 
51 201 
51 203 
51 216 
51 220 
52 53 
52 54 
52 55 
52 56 
52 57 
52 58 
52 59 
52 60 
52 67 
52 73 
52 82 
52 83 
52 95 
52 97 
52 112 
52 115 
52 127 
52 129 
52 137 
52 142 
52 151 
52 157 
52 172 
52 180 
52 183 
52 187 
52 199 
52 202 
52 217 
52 222 
53 54 
53 55 
53 56 
53 57 
53 58 
53 59 
53 60 
53 66 
53 68 
53 83 
53 84 
53 98 
53 101 
53 112 
53 113 
53 125 
53 128 
53 139 
53 143 
53 158 
53 162 
53 173 
53 175 
53 188 
53 194 
53 196 
53 203 
53 218 
53 225 
54 55 
54 56 
54 57 
54 58 
54 59 
54 60 
54 69 
54 72 
54 79 
54 84 
54 99 
54 105 
54 107 
54 114 
54 123 
54 129 
54 141 
54 144 
54 158 
54 159 
54 172 
54 174 
54 189 
54 191 
54 200 
54 204 
54 219 
54 223 
55 56 
55 57 
55 58 
55 59 
55 60 
55 69 
55 70 
55 81 
55 85 
55 98 
55 100 
55 109 
55 115 
55 127 
55 130 
55 140 
55 145 
55 153 
55 160 
55 167 
55 175 
55 181 
55 190 
55 205 
55 210 
55 220 
55 224 
56 57 
56 58 
56 59 
56 60 
56 64 
56 71 
56 78 
56 86 
56 92 
56 101 
56 111 
56 116 
56 131 
56 135 
56 146 
56 149 
56 161 
56 163 
56 176 
56 177 
56 185 
56 191 
56 205 
56 206 
56 219 
56 221 
57 58 
57 59 
57 60 
57 72 
57 74 
57 82 
57 87 
57 100 
57 102 
57 110 
57 117 
57 121 
57 132 
57 138 
57 147 
57 152 
57 162 
57 177 
57 178 
57 189 
57 192 
57 206 
57 207 
57 214 
57 222 
58 59 
58 60 
58 67 
58 73 
58 80 
58 88 
58 94 
58 103 
58 108 
58 118 
58 122 
58 133 
58 136 
58 148 
58 163 
58 165 
58 178 
58 179 
58 186 
58 193 
58 207 
58 208 
58 221 
58 223 
59 60 
59 70 
59 74 
59 86 
59 89 
59 102 
59 104 
59 118 
59 119 
59 128 
59 134 
59 142 
59 149 
59 156 
59 164 
59 170 
59 179 
59 184 
59 194 
59 204 
59 209 
59 212 
59 224 
60 68 
60 75 
60 77 
60 90 
60 91 
60 105 
60 114 
60 120 
60 130 
60 135 
60 147 
60 150 
60 161 
60 165 
60 168 
60 180 
60 193 
60 195 
60 209 
60 210 
60 217 
60 225 
61 62 
61 63 
61 64 
61 65 
61 66 
61 67 
61 68 
61 69 
61 70 
61 71 
61 72 
61 73 
61 74 
61 75 
61 76 
61 90 
61 91 
61 97 
61 106 
61 113 
61 121 
61 124 
61 136 
61 146 
61 151 
61 164 
61 166 
61 171 
61 181 
61 192 
61 196 
61 208 
61 211 
61 213 
62 63 
62 64 
62 65 
62 66 
62 67 
62 68 
62 69 
62 70 
62 71 
62 72 
62 73 
62 74 
62 75 
62 77 
62 87 
62 92 
62 104 
62 107 
62 116 
62 122 
62 126 
62 137 
62 148 
62 152 
62 160 
62 167 
62 174 
62 182 
62 188 
62 197 
62 202 
62 211 
62 212 
63 64 
63 65 
63 66 
63 67 
63 68 
63 69 
63 70 
63 71 
63 72 
63 73 
63 74 
63 75 
63 78 
63 88 
63 93 
63 96 
63 108 
63 120 
63 123 
63 134 
63 138 
63 144 
63 153 
63 155 
63 166 
63 168 
63 183 
63 190 
63 197 
63 198 
63 213 
63 218 
64 65 
64 66 
64 67 
64 68 
64 69 
64 70 
64 71 
64 72 
64 73 
64 74 
64 75 
64 78 
64 79 
64 92 
64 94 
64 109 
64 111 
64 124 
64 135 
64 139 
64 149 
64 154 
64 163 
64 169 
64 177 
64 184 
64 185 
64 199 
64 205 
64 214 
64 219 
65 66 
65 67 
65 68 
65 69 
65 70 
65 71 
65 72 
65 73 
65 74 
65 75 
65 76 
65 80 
65 93 
65 95 
65 110 
65 119 
65 125 
65 132 
65 140 
65 150 
65 154 
65 155 
65 170 
65 176 
65 182 
65 185 
65 200 
65 203 
65 215 
65 220 
66 67 
66 68 
66 69 
66 70 
66 71 
66 72 
66 73 
66 74 
66 75 
66 81 
66 84 
66 96 
66 101 
66 111 
66 112 
66 125 
66 126 
66 139 
66 141 
66 156 
66 162 
66 171 
66 175 
66 186 
66 194 
66 196 
66 201 
66 216 
66 225 
67 68 
67 69 
67 70 
67 71 
67 72 
67 73 
67 74 
67 75 
67 80 
67 82 
67 94 
67 97 
67 108 
67 112 
67 122 
67 127 
67 136 
67 142 
67 157 
67 165 
67 172 
67 179 
67 186 
67 187 
67 202 
67 207 
67 217 
67 221 
68 69 
68 70 
68 71 
68 72 
68 73 
68 74 
68 75 
68 77 
68 83 
68 91 
68 98 
68 113 
68 114 
68 128 
68 130 
68 143 
68 147 
68 158 
68 161 
68 168 
68 173 
68 188 
68 193 
68 203 
68 209 
68 217 
68 218 
69 70 
69 71 
69 72 
69 73 
69 74 
69 75 
69 81 
69 84 
69 98 
69 99 
69 109 
69 114 
69 127 
69 129 
69 140 
69 144 
69 153 
69 159 
69 167 
69 174 
69 181 
69 189 
69 204 
69 210 
69 219 
69 224 
70 71 
70 72 
70 73 
70 74 
70 75 
70 85 
70 86 
70 100 
70 102 
70 115 
70 118 
70 128 
70 130 
70 142 
70 145 
70 156 
70 160 
70 170 
70 175 
70 184 
70 190 
70 204 
70 205 
70 212 
70 220 
71 72 
71 73 
71 74 
71 75 
71 85 
71 86 
71 99 
71 101 
71 106 
71 116 
71 131 
71 133 
71 143 
71 146 
71 157 
71 161 
71 169 
71 176 
71 191 
71 195 
71 198 
71 206 
71 216 
71 221 
72 73 
72 74 
72 75 
72 79 
72 87 
72 102 
72 105 
72 107 
72 117 
72 123 
72 132 
72 141 
72 147 
72 158 
72 162 
72 172 
72 177 
72 191 
72 192 
72 200 
72 207 
72 222 
72 223 
73 74 
73 75 
73 83 
73 88 
73 95 
73 103 
73 115 
73 118 
73 129 
73 133 
73 137 
73 148 
73 151 
73 163 
73 178 
73 180 
73 183 
73 193 
73 199 
73 208 
73 222 
73 223 
74 75 
74 82 
74 89 
74 100 
74 104 
74 110 
74 119 
74 121 
74 134 
74 138 
74 149 
74 152 
74 164 
74 178 
74 179 
74 189 
74 194 
74 206 
74 209 
74 214 
74 224 
75 89 
75 90 
75 103 
75 105 
75 117 
75 120 
75 131 
75 135 
75 145 
75 150 
75 159 
75 165 
75 173 
75 180 
75 187 
75 195 
75 201 
75 210 
75 215 
75 225 
76 77 
76 78 
76 79 
76 80 
76 81 
76 82 
76 83 
76 84 
76 85 
76 86 
76 87 
76 88 
76 89 
76 90 
76 91 
76 93 
76 106 
76 119 
76 121 
76 132 
76 136 
76 150 
76 151 
76 154 
76 166 
76 176 
76 181 
76 182 
76 196 
76 203 
76 211 
76 220 
77 78 
77 79 
77 80 
77 81 
77 82 
77 83 
77 84 
77 85 
77 86 
77 87 
77 88 
77 89 
77 90 
77 91 
77 92 
77 107 
77 114 
77 122 
77 130 
77 137 
77 147 
77 152 
77 161 
77 167 
77 168 
77 182 
77 193 
77 197 
77 209 
77 212 
77 217 
78 79 
78 80 
78 81 
78 82 
78 83 
78 84 
78 85 
78 86 
78 87 
78 88 
78 89 
78 90 
78 92 
78 93 
78 108 
78 111 
78 123 
78 135 
78 138 
78 149 
78 153 
78 163 
78 168 
78 177 
78 183 
78 185 
78 198 
78 205 
78 213 
78 219 
79 80 
79 81 
79 82 
79 83 
79 84 
79 85 
79 86 
79 87 
79 88 
79 89 
79 90 
79 94 
79 105 
79 107 
79 109 
79 123 
79 124 
79 139 
79 141 
79 154 
79 158 
79 169 
79 172 
79 184 
79 191 
79 199 
79 200 
79 214 
79 223 
80 81 
80 82 
80 83 
80 84 
80 85 
80 86 
80 87 
80 88 
80 89 
80 90 
80 94 
80 95 
80 108 
80 110 
80 122 
80 125 
80 136 
80 140 
80 155 
80 165 
80 170 
80 179 
80 185 
80 186 
80 200 
80 207 
80 215 
80 221 
81 82 
81 83 
81 84 
81 85 
81 86 
81 87 
81 88 
81 89 
81 90 
81 96 
81 98 
81 109 
81 111 
81 126 
81 127 
81 140 
81 141 
81 153 
81 156 
81 167 
81 171 
81 181 
81 186 
81 201 
81 210 
81 216 
81 224 
82 83 
82 84 
82 85 
82 86 
82 87 
82 88 
82 89 
82 90 
82 97 
82 100 
82 110 
82 112 
82 121 
82 127 
82 138 
82 142 
82 152 
82 157 
82 172 
82 178 
82 187 
82 189 
82 202 
82 206 
82 214 
82 217 
83 84 
83 85 
83 86 
83 87 
83 88 
83 89 
83 90 
83 95 
83 98 
83 113 
83 115 
83 128 
83 129 
83 137 
83 143 
83 151 
83 158 
83 173 
83 180 
83 183 
83 188 
83 199 
83 203 
83 218 
83 222 
84 85 
84 86 
84 87 
84 88 
84 89 
84 90 
84 99 
84 101 
84 112 
84 114 
84 125 
84 129 
84 139 
84 144 
84 159 
84 162 
84 174 
84 175 
84 189 
84 194 
84 196 
84 204 
84 219 
84 225 
85 86 
85 87 
85 88 
85 89 
85 90 
85 99 
85 100 
85 106 
85 115 
85 130 
85 133 
85 143 
85 145 
85 157 
85 160 
85 169 
85 175 
85 190 
85 195 
85 198 
85 205 
85 216 
85 220 
86 87 
86 88 
86 89 
86 90 
86 101 
86 102 
86 116 
86 118 
86 128 
86 131 
86 142 
86 146 
86 156 
86 161 
86 170 
86 176 
86 184 
86 191 
86 204 
86 206 
86 212 
86 221 
87 88 
87 89 
87 90 
87 102 
87 104 
87 116 
87 117 
87 126 
87 132 
87 147 
87 148 
87 160 
87 162 
87 174 
87 177 
87 188 
87 192 
87 202 
87 207 
87 211 
87 222 
88 89 
88 90 
88 96 
88 103 
88 118 
88 120 
88 133 
88 134 
88 144 
88 148 
88 155 
88 163 
88 166 
88 178 
88 190 
88 193 
88 197 
88 208 
88 218 
88 223 
89 90 
89 103 
89 104 
89 117 
89 119 
89 131 
89 134 
89 145 
89 149 
89 159 
89 164 
89 173 
89 179 
89 187 
89 194 
89 201 
89 209 
89 215 
89 224 
90 97 
90 105 
90 113 
90 120 
90 124 
90 135 
90 146 
90 150 
90 164 
90 165 
90 171 
90 180 
90 192 
90 195 
90 208 
90 210 
90 213 
90 225 
91 92 
91 93 
91 94 
91 95 
91 96 
91 97 
91 98 
91 99 
91 100 
91 101 
91 102 
91 103 
91 104 
91 105 
91 106 
91 114 
91 121 
91 130 
91 136 
91 147 
91 151 
91 161 
91 166 
91 168 
91 181 
91 193 
91 196 
91 209 
91 211 
91 217 
92 93 
92 94 
92 95 
92 96 
92 97 
92 98 
92 99 
92 100 
92 101 
92 102 
92 103 
92 104 
92 105 
92 107 
92 111 
92 122 
92 135 
92 137 
92 149 
92 152 
92 163 
92 167 
92 177 
92 182 
92 185 
92 197 
92 205 
92 212 
92 219 
93 94 
93 95 
93 96 
93 97 
93 98 
93 99 
93 100 
93 101 
93 102 
93 103 
93 104 
93 105 
93 108 
93 119 
93 123 
93 132 
93 138 
93 150 
93 153 
93 154 
93 168 
93 176 
93 182 
93 183 
93 198 
93 203 
93 213 
93 220 
94 95 
94 96 
94 97 
94 98 
94 99 
94 100 
94 101 
94 102 
94 103 
94 104 
94 105 
94 108 
94 109 
94 122 
94 124 
94 136 
94 139 
94 154 
94 165 
94 169 
94 179 
94 184 
94 186 
94 199 
94 207 
94 214 
94 221 
95 96 
95 97 
95 98 
95 99 
95 100 
95 101 
95 102 
95 103 
95 104 
95 105 
95 110 
95 115 
95 125 
95 129 
95 137 
95 140 
95 151 
95 155 
95 170 
95 180 
95 183 
95 185 
95 199 
95 200 
95 215 
95 222 
96 97 
96 98 
96 99 
96 100 
96 101 
96 102 
96 103 
96 104 
96 105 
96 111 
96 120 
96 126 
96 134 
96 141 
96 144 
96 155 
96 156 
96 166 
96 171 
96 186 
96 190 
96 197 
96 201 
96 216 
96 218 
97 98 
97 99 
97 100 
97 101 
97 102 
97 103 
97 104 
97 105 
97 112 
97 113 
97 124 
97 127 
97 142 
97 146 
97 157 
97 164 
97 171 
97 172 
97 187 
97 192 
97 202 
97 208 
97 213 
97 217 
98 99 
98 100 
98 101 
98 102 
98 103 
98 104 
98 105 
98 109 
98 113 
98 127 
98 128 
98 140 
98 143 
98 153 
98 158 
98 167 
98 173 
98 181 
98 188 
98 203 
98 210 
98 218 
98 224 
99 100 
99 101 
99 102 
99 103 
99 104 
99 105 
99 106 
99 114 
99 129 
99 133 
99 143 
99 144 
99 157 
99 159 
99 169 
99 174 
99 189 
99 195 
99 198 
99 204 
99 216 
99 219 
100 101 
100 102 
100 103 
100 104 
100 105 
100 110 
100 115 
100 121 
100 130 
100 138 
100 145 
100 152 
100 160 
100 175 
100 178 
100 189 
100 190 
100 205 
100 206 
100 214 
100 220 
101 102 
101 103 
101 104 
101 105 
101 112 
101 116 
101 125 
101 131 
101 139 
101 146 
101 161 
101 162 
101 175 
101 176 
101 191 
101 194 
101 196 
101 206 
101 221 
101 225 
102 103 
102 104 
102 105 
102 117 
102 118 
102 128 
102 132 
102 142 
102 147 
102 156 
102 162 
102 170 
102 177 
102 184 
102 192 
102 204 
102 207 
102 212 
102 222 
103 104 
103 105 
103 117 
103 118 
103 131 
103 133 
103 145 
103 148 
103 159 
103 163 
103 173 
103 178 
103 187 
103 193 
103 201 
103 208 
103 215 
103 223 
104 105 
104 116 
104 119 
104 126 
104 134 
104 148 
104 149 
104 160 
104 164 
104 174 
104 179 
104 188 
104 194 
104 202 
104 209 
104 211 
104 224 
105 107 
105 120 
105 123 
105 135 
105 141 
105 150 
105 158 
105 165 
105 172 
105 180 
105 191 
105 195 
105 200 
105 210 
105 223 
105 225 
106 107 
106 108 
106 109 
106 110 
106 111 
106 112 
106 113 
106 114 
106 115 
106 116 
106 117 
106 118 
106 119 
106 120 
106 121 
106 133 
106 136 
106 143 
106 151 
106 157 
106 166 
106 169 
106 181 
106 195 
106 196 
106 198 
106 211 
106 216 
107 108 
107 109 
107 110 
107 111 
107 112 
107 113 
107 114 
107 115 
107 116 
107 117 
107 118 
107 119 
107 120 
107 122 
107 123 
107 137 
107 141 
107 152 
107 158 
107 167 
107 172 
107 182 
107 191 
107 197 
107 200 
107 212 
107 223 
108 109 
108 110 
108 111 
108 112 
108 113 
108 114 
108 115 
108 116 
108 117 
108 118 
108 119 
108 120 
108 122 
108 123 
108 136 
108 138 
108 153 
108 165 
108 168 
108 179 
108 183 
108 186 
108 198 
108 207 
108 213 
108 221 
109 110 
109 111 
109 112 
109 113 
109 114 
109 115 
109 116 
109 117 
109 118 
109 119 
109 120 
109 124 
109 127 
109 139 
109 140 
109 153 
109 154 
109 167 
109 169 
109 181 
109 184 
109 199 
109 210 
109 214 
109 224 
110 111 
110 112 
110 113 
110 114 
110 115 
110 116 
110 117 
110 118 
110 119 
110 120 
110 121 
110 125 
110 138 
110 140 
110 152 
110 155 
110 170 
110 178 
110 185 
110 189 
110 200 
110 206 
110 214 
110 215 
111 112 
111 113 
111 114 
111 115 
111 116 
111 117 
111 118 
111 119 
111 120 
111 126 
111 135 
111 141 
111 149 
111 156 
111 163 
111 171 
111 177 
111 185 
111 186 
111 201 
111 205 
111 216 
111 219 
112 113 
112 114 
112 115 
112 116 
112 117 
112 118 
112 119 
112 120 
112 125 
112 127 
112 139 
112 142 
112 157 
112 162 
112 172 
112 175 
112 187 
112 194 
112 196 
112 202 
112 217 
112 225 
113 114 
113 115 
113 116 
113 117 
113 118 
113 119 
113 120 
113 124 
113 128 
113 143 
113 146 
113 158 
113 164 
113 171 
113 173 
113 188 
113 192 
113 203 
113 208 
113 213 
113 218 
114 115 
114 116 
114 117 
114 118 
114 119 
114 120 
114 129 
114 130 
114 144 
114 147 
114 159 
114 161 
114 168 
114 174 
114 189 
114 193 
114 204 
114 209 
114 217 
114 219 
115 116 
115 117 
115 118 
115 119 
115 120 
115 129 
115 130 
115 137 
115 145 
115 151 
115 160 
115 175 
115 180 
115 183 
115 190 
115 199 
115 205 
115 220 
115 222 
116 117 
116 118 
116 119 
116 120 
116 126 
116 131 
116 146 
116 148 
116 160 
116 161 
116 174 
116 176 
116 188 
116 191 
116 202 
116 206 
116 211 
116 221 
117 118 
117 119 
117 120 
117 131 
117 132 
117 145 
117 147 
117 159 
117 162 
117 173 
117 177 
117 187 
117 192 
117 201 
117 207 
117 215 
117 222 
118 119 
118 120 
118 128 
118 133 
118 142 
118 148 
118 156 
118 163 
118 170 
118 178 
118 184 
118 193 
118 204 
118 208 
118 212 
118 223 
119 120 
119 132 
119 134 
119 149 
119 150 
119 154 
119 164 
119 176 
119 179 
119 182 
119 194 
119 203 
119 209 
119 220 
119 224 
120 134 
120 135 
120 144 
120 150 
120 155 
120 165 
120 166 
120 180 
120 190 
120 195 
120 197 
120 210 
120 218 
120 225 
121 122 
121 123 
121 124 
121 125 
121 126 
121 127 
121 128 
121 129 
121 130 
121 131 
121 132 
121 133 
121 134 
121 135 
121 136 
121 138 
121 151 
121 152 
121 166 
121 178 
121 181 
121 189 
121 196 
121 206 
121 211 
121 214 
122 123 
122 124 
122 125 
122 126 
122 127 
122 128 
122 129 
122 130 
122 131 
122 132 
122 133 
122 134 
122 135 
122 136 
122 137 
122 152 
122 165 
122 167 
122 179 
122 182 
122 186 
122 197 
122 207 
122 212 
122 221 
123 124 
123 125 
123 126 
123 127 
123 128 
123 129 
123 130 
123 131 
123 132 
123 133 
123 134 
123 135 
123 138 
123 141 
123 153 
123 158 
123 168 
123 172 
123 183 
123 191 
123 198 
123 200 
123 213 
123 223 
124 125 
124 126 
124 127 
124 128 
124 129 
124 130 
124 131 
124 132 
124 133 
124 134 
124 135 
124 139 
124 146 
124 154 
124 164 
124 169 
124 171 
124 184 
124 192 
124 199 
124 208 
124 213 
124 214 
125 126 
125 127 
125 128 
125 129 
125 130 
125 131 
125 132 
125 133 
125 134 
125 135 
125 139 
125 140 
125 155 
125 162 
125 170 
125 175 
125 185 
125 194 
125 196 
125 200 
125 215 
125 225 
126 127 
126 128 
126 129 
126 130 
126 131 
126 132 
126 133 
126 134 
126 135 
126 141 
126 148 
126 156 
126 160 
126 171 
126 174 
126 186 
126 188 
126 201 
126 202 
126 211 
126 216 
127 128 
127 129 
127 130 
127 131 
127 132 
127 133 
127 134 
127 135 
127 140 
127 142 
127 153 
127 157 
127 167 
127 172 
127 181 
127 187 
127 202 
127 210 
127 217 
127 224 
128 129 
128 130 
128 131 
128 132 
128 133 
128 134 
128 135 
128 142 
128 143 
128 156 
128 158 
128 170 
128 173 
128 184 
128 188 
128 203 
128 204 
128 212 
128 218 
129 130 
129 131 
129 132 
129 133 
129 134 
129 135 
129 137 
129 144 
129 151 
129 159 
129 174 
129 180 
129 183 
129 189 
129 199 
129 204 
129 219 
129 222 
130 131 
130 132 
130 133 
130 134 
130 135 
130 145 
130 147 
130 160 
130 161 
130 168 
130 175 
130 190 
130 193 
130 205 
130 209 
130 217 
130 220 
131 132 
131 133 
131 134 
131 135 
131 145 
131 146 
131 159 
131 161 
131 173 
131 176 
131 187 
131 191 
131 201 
131 206 
131 215 
131 221 
132 133 
132 134 
132 135 
132 147 
132 150 
132 154 
132 162 
132 176 
132 177 
132 182 
132 192 
132 203 
132 207 
132 220 
132 222 
133 134 
133 135 
133 143 
133 148 
133 157 
133 163 
133 169 
133 178 
133 193 
133 195 
133 198 
133 208 
133 216 
133 223 
134 135 
134 144 
134 149 
134 155 
134 164 
134 166 
134 179 
134 190 
134 194 
134 197 
134 209 
134 218 
134 224 
135 149 
135 150 
135 163 
135 165 
135 177 
135 180 
135 185 
135 195 
135 205 
135 210 
135 219 
135 225 
136 137 
136 138 
136 139 
136 140 
136 141 
136 142 
136 143 
136 144 
136 145 
136 146 
136 147 
136 148 
136 149 
136 150 
136 151 
136 165 
136 166 
136 179 
136 181 
136 186 
136 196 
136 207 
136 211 
136 221 
137 138 
137 139 
137 140 
137 141 
137 142 
137 143 
137 144 
137 145 
137 146 
137 147 
137 148 
137 149 
137 150 
137 151 
137 152 
137 167 
137 180 
137 182 
137 183 
137 197 
137 199 
137 212 
137 222 
138 139 
138 140 
138 141 
138 142 
138 143 
138 144 
138 145 
138 146 
138 147 
138 148 
138 149 
138 150 
138 152 
138 153 
138 168 
138 178 
138 183 
138 189 
138 198 
138 206 
138 213 
138 214 
139 140 
139 141 
139 142 
139 143 
139 144 
139 145 
139 146 
139 147 
139 148 
139 149 
139 150 
139 154 
139 162 
139 169 
139 175 
139 184 
139 194 
139 196 
139 199 
139 214 
139 225 
140 141 
140 142 
140 143 
140 144 
140 145 
140 146 
140 147 
140 148 
140 149 
140 150 
140 153 
140 155 
140 167 
140 170 
140 181 
140 185 
140 200 
140 210 
140 215 
140 224 
141 142 
141 143 
141 144 
141 145 
141 146 
141 147 
141 148 
141 149 
141 150 
141 156 
141 158 
141 171 
141 172 
141 186 
141 191 
141 200 
141 201 
141 216 
141 223 
142 143 
142 144 
142 145 
142 146 
142 147 
142 148 
142 149 
142 150 
142 156 
142 157 
142 170 
142 172 
142 184 
142 187 
142 202 
142 204 
142 212 
142 217 
143 144 
143 145 
143 146 
143 147 
143 148 
143 149 
143 150 
143 157 
143 158 
143 169 
143 173 
143 188 
143 195 
143 198 
143 203 
143 216 
143 218 
144 145 
144 146 
144 147 
144 148 
144 149 
144 150 
144 155 
144 159 
144 166 
144 174 
144 189 
144 190 
144 197 
144 204 
144 218 
144 219 
145 146 
145 147 
145 148 
145 149 
145 150 
145 159 
145 160 
145 173 
145 175 
145 187 
145 190 
145 201 
145 205 
145 215 
145 220 
146 147 
146 148 
146 149 
146 150 
146 161 
146 164 
146 171 
146 176 
146 191 
146 192 
146 206 
146 208 
146 213 
146 221 
147 148 
147 149 
147 150 
147 161 
147 162 
147 168 
147 177 
147 192 
147 193 
147 207 
147 209 
147 217 
147 222 
148 149 
148 150 
148 160 
148 163 
148 174 
148 178 
148 188 
148 193 
148 202 
148 208 
148 211 
148 223 
149 150 
149 163 
149 164 
149 177 
149 179 
149 185 
149 194 
149 205 
149 209 
149 219 
149 224 
150 154 
150 165 
150 176 
150 180 
150 182 
150 195 
150 203 
150 210 
150 220 
150 225 
151 152 
151 153 
151 154 
151 155 
151 156 
151 157 
151 158 
151 159 
151 160 
151 161 
151 162 
151 163 
151 164 
151 165 
151 166 
151 180 
151 181 
151 183 
151 196 
151 199 
151 211 
151 222 
152 153 
152 154 
152 155 
152 156 
152 157 
152 158 
152 159 
152 160 
152 161 
152 162 
152 163 
152 164 
152 165 
152 167 
152 178 
152 182 
152 189 
152 197 
152 206 
152 212 
152 214 
153 154 
153 155 
153 156 
153 157 
153 158 
153 159 
153 160 
153 161 
153 162 
153 163 
153 164 
153 165 
153 167 
153 168 
153 181 
153 183 
153 198 
153 210 
153 213 
153 224 
154 155 
154 156 
154 157 
154 158 
154 159 
154 160 
154 161 
154 162 
154 163 
154 164 
154 165 
154 169 
154 176 
154 182 
154 184 
154 199 
154 203 
154 214 
154 220 
155 156 
155 157 
155 158 
155 159 
155 160 
155 161 
155 162 
155 163 
155 164 
155 165 
155 166 
155 170 
155 185 
155 190 
155 197 
155 200 
155 215 
155 218 
156 157 
156 158 
156 159 
156 160 
156 161 
156 162 
156 163 
156 164 
156 165 
156 170 
156 171 
156 184 
156 186 
156 201 
156 204 
156 212 
156 216 
157 158 
157 159 
157 160 
157 161 
157 162 
157 163 
157 164 
157 165 
157 169 
157 172 
157 187 
157 195 
157 198 
157 202 
157 216 
157 217 
158 159 
158 160 
158 161 
158 162 
158 163 
158 164 
158 165 
158 172 
158 173 
158 188 
158 191 
158 200 
158 203 
158 218 
158 223 
159 160 
159 161 
159 162 
159 163 
159 164 
159 165 
159 173 
159 174 
159 187 
159 189 
159 201 
159 204 
159 215 
159 219 
160 161 
160 162 
160 163 
160 164 
160 165 
160 174 
160 175 
160 188 
160 190 
160 202 
160 205 
160 211 
160 220 
161 162 
161 163 
161 164 
161 165 
161 168 
161 176 
161 191 
161 193 
161 206 
161 209 
161 217 
161 221 
162 163 
162 164 
162 165 
162 175 
162 177 
162 192 
162 194 
162 196 
162 207 
162 222 
162 225 
163 164 
163 165 
163 177 
163 178 
163 185 
163 193 
163 205 
163 208 
163 219 
163 223 
164 165 
164 171 
164 179 
164 192 
164 194 
164 208 
164 209 
164 213 
164 224 
165 179 
165 180 
165 186 
165 195 
165 207 
165 210 
165 221 
165 225 
166 167 
166 168 
166 169 
166 170 
166 171 
166 172 
166 173 
166 174 
166 175 
166 176 
166 177 
166 178 
166 179 
166 180 
166 181 
166 190 
166 196 
166 197 
166 211 
166 218 
167 168 
167 169 
167 170 
167 171 
167 172 
167 173 
167 174 
167 175 
167 176 
167 177 
167 178 
167 179 
167 180 
167 181 
167 182 
167 197 
167 210 
167 212 
167 224 
168 169 
168 170 
168 171 
168 172 
168 173 
168 174 
168 175 
168 176 
168 177 
168 178 
168 179 
168 180 
168 183 
168 193 
168 198 
168 209 
168 213 
168 217 
169 170 
169 171 
169 172 
169 173 
169 174 
169 175 
169 176 
169 177 
169 178 
169 179 
169 180 
169 184 
169 195 
169 198 
169 199 
169 214 
169 216 
170 171 
170 172 
170 173 
170 174 
170 175 
170 176 
170 177 
170 178 
170 179 
170 180 
170 184 
170 185 
170 200 
170 204 
170 212 
170 215 
171 172 
171 173 
171 174 
171 175 
171 176 
171 177 
171 178 
171 179 
171 180 
171 186 
171 192 
171 201 
171 208 
171 213 
171 216 
172 173 
172 174 
172 175 
172 176 
172 177 
172 178 
172 179 
172 180 
172 187 
172 191 
172 200 
172 202 
172 217 
172 223 
173 174 
173 175 
173 176 
173 177 
173 178 
173 179 
173 180 
173 187 
173 188 
173 201 
173 203 
173 215 
173 218 
174 175 
174 176 
174 177 
174 178 
174 179 
174 180 
174 188 
174 189 
174 202 
174 204 
174 211 
174 219 
175 176 
175 177 
175 178 
175 179 
175 180 
175 190 
175 194 
175 196 
175 205 
175 220 
175 225 
176 177 
176 178 
176 179 
176 180 
176 182 
176 191 
176 203 
176 206 
176 220 
176 221 
177 178 
177 179 
177 180 
177 185 
177 192 
177 205 
177 207 
177 219 
177 222 
178 179 
178 180 
178 189 
178 193 
178 206 
178 208 
178 214 
178 223 
179 180 
179 186 
179 194 
179 207 
179 209 
179 221 
179 224 
180 183 
180 195 
180 199 
180 210 
180 222 
180 225 
181 182 
181 183 
181 184 
181 185 
181 186 
181 187 
181 188 
181 189 
181 190 
181 191 
181 192 
181 193 
181 194 
181 195 
181 196 
181 210 
181 211 
181 224 
182 183 
182 184 
182 185 
182 186 
182 187 
182 188 
182 189 
182 190 
182 191 
182 192 
182 193 
182 194 
182 195 
182 197 
182 203 
182 212 
182 220 
183 184 
183 185 
183 186 
183 187 
183 188 
183 189 
183 190 
183 191 
183 192 
183 193 
183 194 
183 195 
183 198 
183 199 
183 213 
183 222 
184 185 
184 186 
184 187 
184 188 
184 189 
184 190 
184 191 
184 192 
184 193 
184 194 
184 195 
184 199 
184 204 
184 212 
184 214 
185 186 
185 187 
185 188 
185 189 
185 190 
185 191 
185 192 
185 193 
185 194 
185 195 
185 200 
185 205 
185 215 
185 219 
186 187 
186 188 
186 189 
186 190 
186 191 
186 192 
186 193 
186 194 
186 195 
186 201 
186 207 
186 216 
186 221 
187 188 
187 189 
187 190 
187 191 
187 192 
187 193 
187 194 
187 195 
187 201 
187 202 
187 215 
187 217 
188 189 
188 190 
188 191 
188 192 
188 193 
188 194 
188 195 
188 202 
188 203 
188 211 
188 218 
189 190 
189 191 
189 192 
189 193 
189 194 
189 195 
189 204 
189 206 
189 214 
189 219 
190 191 
190 192 
190 193 
190 194 
190 195 
190 197 
190 205 
190 218 
190 220 
191 192 
191 193 
191 194 
191 195 
191 200 
191 206 
191 221 
191 223 
192 193 
192 194 
192 195 
192 207 
192 208 
192 213 
192 222 
193 194 
193 195 
193 208 
193 209 
193 217 
193 223 
194 195 
194 196 
194 209 
194 224 
194 225 
195 198 
195 210 
195 216 
195 225 
196 197 
196 198 
196 199 
196 200 
196 201 
196 202 
196 203 
196 204 
196 205 
196 206 
196 207 
196 208 
196 209 
196 210 
196 211 
196 225 
197 198 
197 199 
197 200 
197 201 
197 202 
197 203 
197 204 
197 205 
197 206 
197 207 
197 208 
197 209 
197 210 
197 212 
197 218 
198 199 
198 200 
198 201 
198 202 
198 203 
198 204 
198 205 
198 206 
198 207 
198 208 
198 209 
198 210 
198 213 
198 216 
199 200 
199 201 
199 202 
199 203 
199 204 
199 205 
199 206 
199 207 
199 208 
199 209 
199 210 
199 214 
199 222 
200 201 
200 202 
200 203 
200 204 
200 205 
200 206 
200 207 
200 208 
200 209 
200 210 
200 215 
200 223 
201 202 
201 203 
201 204 
201 205 
201 206 
201 207 
201 208 
201 209 
201 210 
201 215 
201 216 
202 203 
202 204 
202 205 
202 206 
202 207 
202 208 
202 209 
202 210 
202 211 
202 217 
203 204 
203 205 
203 206 
203 207 
203 208 
203 209 
203 210 
203 218 
203 220 
204 205 
204 206 
204 207 
204 208 
204 209 
204 210 
204 212 
204 219 
205 206 
205 207 
205 208 
205 209 
205 210 
205 219 
205 220 
206 207 
206 208 
206 209 
206 210 
206 214 
206 221 
207 208 
207 209 
207 210 
207 221 
207 222 
208 209 
208 210 
208 213 
208 223 
209 210 
209 217 
209 224 
210 224 
210 225 
211 212 
211 213 
211 214 
211 215 
211 216 
211 217 
211 218 
211 219 
211 220 
211 221 
211 222 
211 223 
211 224 
211 225 
212 213 
212 214 
212 215 
212 216 
212 217 
212 218 
212 219 
212 220 
212 221 
212 222 
212 223 
212 224 
212 225 
213 214 
213 215 
213 216 
213 217 
213 218 
213 219 
213 220 
213 221 
213 222 
213 223 
213 224 
213 225 
214 215 
214 216 
214 217 
214 218 
214 219 
214 220 
214 221 
214 222 
214 223 
214 224 
214 225 
215 216 
215 217 
215 218 
215 219 
215 220 
215 221 
215 222 
215 223 
215 224 
215 225 
216 217 
216 218 
216 219 
216 220 
216 221 
216 222 
216 223 
216 224 
216 225 
217 218 
217 219 
217 220 
217 221 
217 222 
217 223 
217 224 
217 225 
218 219 
218 220 
218 221 
218 222 
218 223 
218 224 
218 225 
219 220 
219 221 
219 222 
219 223 
219 224 
219 225 
220 221 
220 222 
220 223 
220 224 
220 225 
221 222 
221 223 
221 224 
221 225 
222 223 
222 224 
222 225 
223 224 
223 225 
224 225 
